presolving:
(round 1, fast)       101 del vars, 0 del conss, 0 add conss, 0 chg bounds, 0 chg sides, 0 chg coeffs, 0 upgd conss, 0 impls, 200 clqs
(round 2, exhaustive) 101 del vars, 0 del conss, 0 add conss, 0 chg bounds, 0 chg sides, 0 chg coeffs, 200 upgd conss, 0 impls, 200 clqs
   (0.0s) probing: 51/9900 (0.5%) - 0 fixings, 0 aggregations, 0 implications, 0 bound changes
   (0.0s) probing aborted: 50/50 successive totally useless probings
   Deactivated symmetry handling methods, since SCIP was built without symmetry detector (SYM=none).
presolving (3 rounds: 3 fast, 2 medium, 2 exhaustive):
 101 deleted vars, 0 deleted constraints, 0 added constraints, 0 tightened bounds, 0 added holes, 0 changed sides, 0 changed coefficients
 0 implications, 200 cliques
presolved problem has 9999 variables (9900 bin, 0 int, 0 impl, 99 cont) and 9902 constraints
    200 constraints of type <setppc>
   9702 constraints of type <linear>
Presolving Time: 1.00

 time | node  | left  |LP iter|LP it/n|mem/heur|mdpt |vars |cons |rows |cuts |sepa|confs|strbr|  dualbound   | primalbound  |  gap   | compl. 
p 1.0s|     1 |     0 |    94 |     - | vbounds|   0 |9999 |9909 |9902 |   0 |  0 |   6 |   0 | 0.000000e+00 | 1.818216e+05 |    Inf | unknown
  1.0s|     1 |     0 |   399 |     - |   126M |   0 |9999 |9909 |9902 |   0 |  0 |   6 |   0 | 1.675304e+04 | 1.818216e+05 | 985.31%| unknown
  1.0s|     1 |     0 |   502 |     - |   130M |   0 |9999 |9909 |9981 |  79 |  1 |   6 |   0 | 1.834940e+04 | 1.818216e+05 | 890.89%| unknown
  1.0s|     1 |     0 |   610 |     - |   132M |   0 |9999 |9909 |  10k| 126 |  2 |   6 |   0 | 1.889195e+04 | 1.818216e+05 | 862.43%| unknown
  2.0s|     1 |     0 |   677 |     - |   134M |   0 |9999 |9909 |  10k| 153 |  3 |   6 |   0 | 2.030764e+04 | 1.818216e+05 | 795.34%| unknown
  2.0s|     1 |     0 |   715 |     - |   135M |   0 |9999 |9909 |  10k| 164 |  4 |   6 |   0 | 2.058391e+04 | 1.818216e+05 | 783.32%| unknown
  2.0s|     1 |     0 |   724 |     - |   137M |   0 |9999 |9909 |  10k| 170 |  5 |   6 |   0 | 2.058391e+04 | 1.818216e+05 | 783.32%| unknown
  2.0s|     1 |     0 |   728 |     - |   138M |   0 |9999 |9909 |  10k| 173 |  6 |   6 |   0 | 2.058391e+04 | 1.818216e+05 | 783.32%| unknown
  3.0s|     1 |     0 |   765 |     - |   139M |   0 |9999 |9909 |  10k| 186 |  7 |   6 |   0 | 2.059338e+04 | 1.818216e+05 | 782.91%| unknown
  3.0s|     1 |     0 |   789 |     - |   141M |   0 |9999 |9909 |  10k| 201 |  8 |   6 |   0 | 2.059472e+04 | 1.818216e+05 | 782.86%| unknown
  3.0s|     1 |     0 |   812 |     - |   144M |   0 |9999 |9909 |  10k| 208 |  9 |   6 |   0 | 2.059591e+04 | 1.818216e+05 | 782.80%| unknown
  3.0s|     1 |     0 |   858 |     - |   145M |   0 |9999 |9909 |  10k| 211 | 10 |   6 |   0 | 2.075765e+04 | 1.818216e+05 | 775.93%| unknown
  3.0s|     1 |     0 |   866 |     - |   146M |   0 |9999 |9909 |  10k| 219 | 11 |   6 |   0 | 2.075765e+04 | 1.818216e+05 | 775.93%| unknown
  4.0s|     1 |     0 |   891 |     - |   147M |   0 |9999 |9909 |  10k| 229 | 12 |   6 |   0 | 2.082504e+04 | 1.818216e+05 | 773.09%| unknown
  4.0s|     1 |     0 |   916 |     - |   148M |   0 |9999 |9909 |  10k| 239 | 13 |   6 |   0 | 2.085386e+04 | 1.818216e+05 | 771.88%| unknown
 time | node  | left  |LP iter|LP it/n|mem/heur|mdpt |vars |cons |rows |cuts |sepa|confs|strbr|  dualbound   | primalbound  |  gap   | compl. 
  4.0s|     1 |     0 |   943 |     - |   148M |   0 |9999 |9909 |  10k| 251 | 14 |   6 |   0 | 2.086584e+04 | 1.818216e+05 | 771.38%| unknown
  4.0s|     1 |     0 |   946 |     - |   149M |   0 |9999 |9909 |  10k| 252 | 15 |   6 |   0 | 2.088767e+04 | 1.818216e+05 | 770.47%| unknown
  4.0s|     1 |     0 |   968 |     - |   150M |   0 |9999 |9909 |  10k| 261 | 16 |   6 |   0 | 2.095546e+04 | 1.818216e+05 | 767.66%| unknown
  5.0s|     1 |     0 |   991 |     - |   151M |   0 |9999 |9909 |  10k| 271 | 17 |   6 |   0 | 2.095745e+04 | 1.818216e+05 | 767.58%| unknown
  5.0s|     1 |     0 |  1011 |     - |   152M |   0 |9999 |9909 |  10k| 276 | 18 |   6 |   0 | 2.097431e+04 | 1.818216e+05 | 766.88%| unknown
  5.0s|     1 |     0 |  1023 |     - |   153M |   0 |9999 |9909 |  10k| 281 | 19 |   6 |   0 | 2.098210e+04 | 1.818216e+05 | 766.56%| unknown
  5.0s|     1 |     0 |  1033 |     - |   154M |   0 |9999 |9909 |  10k| 284 | 20 |   6 |   0 | 2.098432e+04 | 1.818216e+05 | 766.46%| unknown
  6.0s|     1 |     0 |  1050 |     - |   154M |   0 |9999 |9909 |  10k| 291 | 21 |   6 |   0 | 2.098432e+04 | 1.818216e+05 | 766.46%| unknown
  6.0s|     1 |     0 |  1058 |     - |   154M |   0 |9999 |9909 |  10k| 295 | 22 |   6 |   0 | 2.098432e+04 | 1.818216e+05 | 766.46%| unknown
  6.0s|     1 |     0 |  1062 |     - |   154M |   0 |9999 |9909 |  10k| 299 | 23 |   6 |   0 | 2.098432e+04 | 1.818216e+05 | 766.46%| unknown
  6.0s|     1 |     0 |  1063 |     - |   154M |   0 |9999 |9909 |  10k| 300 | 24 |   6 |   0 | 2.098432e+04 | 1.818216e+05 | 766.46%| unknown
 20.0s|     1 |     2 |  7570 |     - |   157M |   0 |9999 |9914 |  10k| 300 | 26 |  11 |  23 | 2.100008e+04 | 1.818216e+05 | 765.81%| unknown
d 205s|    44 |    45 | 13638 | 294.6 |distribu|  19 |9999 |9936 |  10k|   0 |  1 |  33 | 819 | 2.100333e+04 | 3.485640e+04 |  65.96%| unknown
  334s|   100 |   101 | 20152 | 193.8 |   190M |  22 |9999 |9972 |  10k| 618 |  2 |  69 |1316 | 2.100333e+04 | 3.485640e+04 |  65.96%| unknown
  408s|   200 |   199 | 28355 | 137.6 |   204M |  23 |9999 |9989 |  10k| 819 |  1 |  89 |1553 | 2.100790e+04 | 3.485640e+04 |  65.92%| unknown
 time | node  | left  |LP iter|LP it/n|mem/heur|mdpt |vars |cons |rows |cuts |sepa|confs|strbr|  dualbound   | primalbound  |  gap   | compl. 
L 433s|   244 |   243 | 31564 | 125.9 |    rins|  23 |9999 |  10k|  10k| 944 |  1 | 105 |1607 | 2.100790e+04 | 3.139852e+04 |  49.46%| unknown
  448s|   300 |   299 | 36279 | 118.1 |   209M |  23 |9999 |  10k|  10k|1048 |  1 | 135 |1635 | 2.100790e+04 | 3.139852e+04 |  49.46%| unknown
  482s|   400 |   399 | 45017 | 110.4 |   217M |  23 |9999 |  10k|  10k|1286 |  1 | 153 |1701 | 2.101163e+04 | 3.139852e+04 |  49.43%| unknown
  513s|   500 |   499 | 57220 | 112.7 |   221M |  23 |9999 |  10k|  10k|1426 |  1 | 195 |1747 | 2.101163e+04 | 3.139852e+04 |  49.43%| unknown
  538s|   600 |   597 | 63253 | 104.0 |   221M |  23 |9999 |  10k|  10k|1537 |  1 | 222 |1793 | 2.101259e+04 | 3.139852e+04 |  49.43%| unknown
d 547s|   636 |   633 | 66143 | 102.6 |veclendi|  23 |9999 |  10k|  10k|   0 |  1 | 244 |1807 | 2.101265e+04 | 3.123380e+04 |  48.64%| unknown
  565s|   700 |   697 | 71613 | 101.1 |   224M |  23 |9999 |  10k|  10k|1743 |  1 | 260 |1835 | 2.101845e+04 | 3.123380e+04 |  48.60%| unknown
  585s|   800 |   797 | 80227 |  99.2 |   225M |  23 |9999 |  10k|  10k|1914 |  1 | 333 |1854 | 2.102530e+04 | 3.123380e+04 |  48.55%| unknown
L 594s|   845 |   842 | 83590 |  97.9 |    rins|  25 |9999 |  10k|  10k|1968 |  1 | 352 |1861 | 2.102530e+04 | 3.097351e+04 |  47.32%| unknown

SCIP Status        : solving was interrupted [time limit reached]
Solving Time (sec) : 600.00
Solving Nodes      : 867
Primal Bound       : +3.09735116473225e+04 (6 solutions)
Dual Bound         : +2.10252978695878e+04
Gap                : 47.32 %
Trying to solve problem with MTZ Solver Method...
Starting Solver, time limit setted to 10 minutes
Route:  [[0, 82], [1, 3], [2, 35], [3, 66], [4, 7], [5, 33], [6, 20], [7, 64], [8, 12], [9, 79], [10, 1], [11, 75], [12, 65], [13, 43], [14, 55], [15, 46], [16, 19], [17, 93], [18, 85], [19, 14], [20, 73], [21, 32], [22, 63], [23, 17], [24, 44], [25, 78], [26, 86], [27, 22], [28, 23], [29, 92], [30, 8], [31, 57], [32, 37], [33, 52], [34, 83], [35, 27], [36, 76], [37, 67], [38, 21], [39, 87], [40, 74], [41, 4], [42, 38], [43, 72], [44, 98], [45, 25], [46, 2], [47, 89], [48, 49], [49, 59], [50, 54], [51, 13], [52, 77], [53, 24], [54, 5], [55, 61], [56, 30], [57, 62], [58, 97], [59, 9], [60, 70], [61, 48], [62, 11], [63, 94], [64, 96], [65, 29], [66, 26], [67, 47], [68, 50], [69, 36], [70, 71], [71, 51], [72, 15], [73, 0], [74, 91], [75, 6], [76, 84], [77, 99], [78, 80], [79, 56], [80, 88], [81, 45], [82, 68], [83, 16], [84, 95], [85, 42], [86, 40], [87, 34], [88, 60], [89, 41], [90, 69], [91, 81], [92, 90], [93, 18], [94, 58], [95, 10], [96, 53], [97, 31], [98, 39], [99, 28]]
An Otimal Solution was found, yay!
Objective value: 30973.5
Problem solved in 84878 iterations
Problem solved in 867 nodes
Final Route Configuration succesfully created at:
data/routes/kroE100.csv
